(set-logic QF_SLAH)

(declare-datatypes ((data_t 0)) (((c_data_t (sz Int)))))

(declare-heap (Int data_t))

(define-fun hck ((?x Int) (?y Int) (?v Int)) Bool
	(and
		(>= (- ?y ?x) 2) (<= (- ?y ?x) ?v)
		(sep (pto ?x (c_data_t (- ?y ?x))) (blk (+ ?x 1) ?y))
))

(define-fun-rec hls ((?x Int) (?y Int) (?v Int)) Bool
	(or
		(and (= ?x ?y) (_ emp Int data_t))
		(exists ((?w Int)) (sep (hck ?x ?w ?v) (hls ?w ?y ?v)))
))

(declare-const x0 Int)
(declare-const x1 Int)
(declare-const v0 Int)
(declare-const x2 Int)
(declare-const x3 Int)
(declare-const x4 Int)
(declare-const x5 Int)
(declare-const v4 Int)
(declare-const x6 Int)
(declare-const x7 Int)
(declare-const v6 Int)
(declare-const x8 Int)
(declare-const x9 Int)
(declare-const x10 Int)
(declare-const x11 Int)
(declare-const x12 Int)
(declare-const x13 Int)
(declare-const v12 Int)
(declare-const x14 Int)
(declare-const x15 Int)
(declare-const x16 Int)
(declare-const x17 Int)
(declare-const v16 Int)
(declare-const x18 Int)
(declare-const x19 Int)
(declare-const x20 Int)
(declare-const x21 Int)
(declare-const x22 Int)
(declare-const x23 Int)
(declare-const x24 Int)
(declare-const x25 Int)
(declare-const v24 Int)
(declare-const x26 Int)
(declare-const x27 Int)
(declare-const x28 Int)
(declare-const x29 Int)
(declare-const x30 Int)
(declare-const x31 Int)
(declare-const x32 Int)
(declare-const x33 Int)
(declare-const x34 Int)
(declare-const x35 Int)
(declare-const x36 Int)
(declare-const x37 Int)
(declare-const x38 Int)
(declare-const x39 Int)
(declare-const x40 Int)
(declare-const x41 Int)
(declare-const v40 Int)
(declare-const x42 Int)
(declare-const x43 Int)
(declare-const x44 Int)
(declare-const x45 Int)
(declare-const v44 Int)
(declare-const x46 Int)
(declare-const x47 Int)
(declare-const x48 Int)
(declare-const x49 Int)
(declare-const v48 Int)
(declare-const x50 Int)
(declare-const x51 Int)
(declare-const v50 Int)
(declare-const x52 Int)
(declare-const x53 Int)
(declare-const x54 Int)
(declare-const x55 Int)
(declare-const x56 Int)
(declare-const x57 Int)
(declare-const v56 Int)
(declare-const x58 Int)
(declare-const x59 Int)
(declare-const x60 Int)
(declare-const x61 Int)
(declare-const v60 Int)
(declare-const x62 Int)
(declare-const x63 Int)
(declare-const v62 Int)
(declare-const x64 Int)
(declare-const x65 Int)
(declare-const x66 Int)
(declare-const x67 Int)
(declare-const v66 Int)
(declare-const x68 Int)
(declare-const x69 Int)
(declare-const x70 Int)
(declare-const x71 Int)
(declare-const x72 Int)
(declare-const x73 Int)
(declare-const v72 Int)
(declare-const x74 Int)
(declare-const x75 Int)
(declare-const v74 Int)
(declare-const x76 Int)
(declare-const x77 Int)
(declare-const x78 Int)
(declare-const x79 Int)
(declare-const v78 Int)
(declare-const x80 Int)
(declare-const x81 Int)
(declare-const x82 Int)
(declare-const x83 Int)
(declare-const x84 Int)
(declare-const x85 Int)
(declare-const x86 Int)
(declare-const x87 Int)
(declare-const v86 Int)
(declare-const x88 Int)
(declare-const x89 Int)
(declare-const x90 Int)
(declare-const x91 Int)
(declare-const x92 Int)
(declare-const x93 Int)
(declare-const x94 Int)
(declare-const x95 Int)
(declare-const x96 Int)
(declare-const x97 Int)
(declare-const x98 Int)
(declare-const x99 Int)
(declare-const v98 Int)
(declare-const x100 Int)
(declare-const x101 Int)
(declare-const x102 Int)
(declare-const x103 Int)
(declare-const x104 Int)
(declare-const x105 Int)
(declare-const x106 Int)
(declare-const x107 Int)
(declare-const x108 Int)
(declare-const x109 Int)
(declare-const x110 Int)
(declare-const x111 Int)
(declare-const x112 Int)
(declare-const x113 Int)
(declare-const x114 Int)
(declare-const x115 Int)
(declare-const x116 Int)
(declare-const x117 Int)
(declare-const v116 Int)
(declare-const x118 Int)
(declare-const x119 Int)
(declare-const x120 Int)
(declare-const x121 Int)
(declare-const x122 Int)
(declare-const x123 Int)
(declare-const x124 Int)
(declare-const x125 Int)
(declare-const x126 Int)
(declare-const x127 Int)
(declare-const x128 Int)
(declare-const x129 Int)
(declare-const v128 Int)
(declare-const x130 Int)
(declare-const x131 Int)
(declare-const x132 Int)
(declare-const x133 Int)
(declare-const x134 Int)
(declare-const x135 Int)
(declare-const x136 Int)
(declare-const x137 Int)
(declare-const x138 Int)
(declare-const x139 Int)
(declare-const x140 Int)
(declare-const x141 Int)
(declare-const x142 Int)
(declare-const x143 Int)
(declare-const x144 Int)
(declare-const x145 Int)
(declare-const x146 Int)
(declare-const x147 Int)
(declare-const x148 Int)
(declare-const x149 Int)
(declare-const x150 Int)
(declare-const x151 Int)
(declare-const x152 Int)
(declare-const x153 Int)
(declare-const x154 Int)
(declare-const x155 Int)
(declare-const x156 Int)
(declare-const x157 Int)
(declare-const x158 Int)
(declare-const x159 Int)

(assert(and
(= x42 x25) (distinct x10 x110) (distinct x35 x107) (= x130 x17) (< x40 x43) (distinct x59 x36) (= x115 x56) (= x119 x148) 
(sep
(hls x0 x1 v0)
(pto x2 (c_data_t x3))
(hls x4 x5 v4)
(hls x6 x7 v6)
(pto x8 (c_data_t x9))
(blk x10 x11)
(hls x12 x13 v12)
(pto x14 (c_data_t x15))
(hls x16 x17 v16)
(pto x18 (c_data_t x19))
(pto x20 (c_data_t x21))
(pto x22 (c_data_t x23))
(hls x24 x25 v24)
(pto x26 (c_data_t x27))
(pto x28 (c_data_t x29))
(pto x30 (c_data_t x31))
(blk x32 x33)
(blk x34 x35)
(blk x36 x37)
(pto x38 (c_data_t x39))
(hls x40 x41 v40)
(blk x42 x43)
(hls x44 x45 v44)
(blk x46 x47)
(hls x48 x49 v48)
(hls x50 x51 v50)
(pto x52 (c_data_t x53))
(blk x54 x55)
(hls x56 x57 v56)
(pto x58 (c_data_t x59))
(hls x60 x61 v60)
(hls x62 x63 v62)
(pto x64 (c_data_t x65))
(hls x66 x67 v66)
(pto x68 (c_data_t x69))
(pto x70 (c_data_t x71))
(hls x72 x73 v72)
(hls x74 x75 v74)
(blk x76 x77)
(hls x78 x79 v78)
(blk x80 x81)
(pto x82 (c_data_t x83))
(blk x84 x85)
(hls x86 x87 v86)
(blk x88 x89)
(blk x90 x91)
(pto x92 (c_data_t x93))
(blk x94 x95)
(blk x96 x97)
(hls x98 x99 v98)
(pto x100 (c_data_t x101))
(blk x102 x103)
(pto x104 (c_data_t x105))
(pto x106 (c_data_t x107))
(blk x108 x109)
(blk x110 x111)
(pto x112 (c_data_t x113))
(pto x114 (c_data_t x115))
(hls x116 x117 v116)
(pto x118 (c_data_t x119))
(blk x120 x121)
(blk x122 x123)
(blk x124 x125)
(blk x126 x127)
(hls x128 x129 v128)
(pto x130 (c_data_t x131))
(pto x132 (c_data_t x133))
(pto x134 (c_data_t x135))
(pto x136 (c_data_t x137))
(pto x138 (c_data_t x139))
(pto x140 (c_data_t x141))
(pto x142 (c_data_t x143))
(pto x144 (c_data_t x145))
(blk x146 x147)
(blk x148 x149)
(blk x150 x151)
(pto x152 (c_data_t x153))
(pto x154 (c_data_t x155))
(blk x156 x157)
(blk x158 x159)
)))

(check-sat)